c p1 p2 p3 f1 f2 f3 e1 e2 e3 m1 m2 m3 s1 s2 s3 v1 v2 v3
c 1 2 3 4 5 6 7 8 9 10 11 12 13 14 15 16 17 18
p cnf 18 60
1 4 7 0
2 5 8 0
3 6 9 0
10 13 16 0
11 14 17 0
12 15 18 0
-1 -2 0
-1 -3 0
-2 -3 0
-7 -8 0
-7 -9 0
-8 -9 0
-4 -5 0
-4 -6 0
-5 -6 0
-13 -14 0
-13 -15 0
-14 -15 0
-16 -17 0
-16 -18 0
-17 -18 0
-10 -11 0
-10 -12 0
-11 -12 0
-1 -4 0
-2 -5 0
-3 -6 0
-1 -7 0
-2 -8 0
-3 -9 0
-4 -7 0
-5 -8 0
-6 -9 0
-10 -13 0
-11 -14 0
-12 -15 0
-10 -16 0
-11 -17 0
-12 -18 0
-13 -16 0
-14 -17 0
-15 -18 0
-7 -16 0
-8 -17 0
-9 -18 0
-13 -7 0
-14 -8 0
-15 -9 0
-1 -13 0
-2 -14 0
-3 -15 0
-16 -4 0
-17 -5 0
-18 -6 0
-4 -16 0
-5 -17 0
-6 -18 0
-4 -10 0
-5 -11 0
-6 -12 0